192 300 130 86 150 77 266 250 57 62 286 252 268 177 154 120 42 146 214 187 71 284 196 42 113 175 98 109 209 264 231 233 7 113 70 156 189 88 157 297 201 195 248 168 123 153 39 217 298 253 103 120 236 298 213 100 225 10 208 133 273 191 118 279 3 239 186 191 26 95 239 226 41 238 145 215 142 184 131 139 136 234 258 123 283 222 223 207 231 182 92 255 72 261 285 74 199 170 16 225 16 6 202 108 295 47 23 136 230 153 274 117 138 283 291 173 204 265 79 186 147 222 140 270 234 124 96 133 46 111 109 113 169 62 221 163 108 243 299 89 147 24 257 37 7 248 209 262 212 39 148 110 13 287 80 246 163 175 78 208 37 238 20 257 300 240 120 159 234 170 248 133 193 204 169 251 203 129 213 115 167 112 276 179 150 107 125 12 33 254 219 122 244 291 